param n := 60;
param c := 3000
param : V : p w :=
   0	  21	 480
   1	  42	 256
   2	  48	 264
   3	  93	 373
   4	   9	 297
   5	  81	 330
   6	  43	 412
   7	  12	 281
   8	  47	 307
   9	  32	 392
  10	  67	 286
  11	  82	 322
  12	  60	 432
  13	  52	 265
  14	  33	 303
  15	  70	 478
  16	  74	 255
  17	  81	 267
  18	   9	 406
  19	  79	 268
  20	  22	 326
  21	  72	 365
  22	  89	 255
  23	   1	 380
  24	  22	 407
  25	  45	 279
  26	  40	 314
  27	   8	 378
  28	  21	 293
  29	  95	 329
  30	  47	 362
  31	  87	 273
  32	  57	 365
  33	  71	 487
  34	  77	 252
  35	   5	 261
  36	  94	 422
  37	  61	 260
  38	   2	 318
  39	  63	 410
  40	  69	 266
  41	  50	 324
  42	  34	 410
  43	  38	 263
  44	  81	 327
  45	  67	 370
  46	  13	 260
  47	  64	 370
  48	  49	 454
  49	  71	 250
  50	  81	 296
  51	  60	 366
  52	  29	 281
  53	  44	 353
  54	   7	 476
  55	  17	 260
  56	  84	 264
  57	  93	 465
  58	  81	 256
  59	  99	 279
;

set E :=
   0	   6
   0	  10
   0	  20
   0	  21
   0	  22
   0	  38
   0	  48
   0	  53
   1	   3
   1	   6
   1	   7
   1	  17
   1	  24
   1	  58
   2	   3
   2	  13
   2	  19
   2	  20
   2	  34
   2	  38
   2	  58
   3	   6
   3	  19
   3	  20
   3	  26
   3	  29
   3	  35
   5	  49
   5	  51
   6	  12
   6	  15
   6	  16
   6	  41
   6	  49
   6	  50
   6	  54
   6	  55
   7	  11
   7	  27
   7	  38
   7	  39
   7	  58
   7	  59
   8	  13
   8	  15
   8	  22
   8	  37
   8	  38
   8	  44
   8	  58
   9	  13
   9	  14
   9	  21
   9	  34
   9	  45
  10	  11
  10	  22
  10	  31
  10	  46
  11	  15
  11	  27
  11	  30
  11	  33
  11	  34
  11	  56
  12	  26
  12	  35
  12	  55
  13	  17
  13	  22
  13	  42
  13	  51
  14	  48
  14	  56
  15	  17
  15	  20
  15	  39
  15	  54
  16	  17
  16	  18
  16	  57
  17	  19
  17	  27
  17	  49
  18	  21
  18	  38
  18	  42
  18	  43
  18	  48
  18	  55
  19	  31
  19	  49
  19	  53
  19	  54
  20	  25
  20	  31
  20	  35
  20	  46
  20	  57
  21	  28
  21	  38
  22	  34
  22	  44
  22	  56
  22	  59
  23	  24
  23	  36
  23	  37
  23	  50
  24	  28
  24	  34
  24	  35
  24	  37
  24	  47
  24	  49
  24	  53
  25	  38
  25	  39
  25	  51
  25	  54
  25	  57
  26	  34
  26	  41
  26	  44
  26	  45
  27	  28
  27	  44
  27	  57
  28	  32
  28	  40
  28	  51
  28	  52
  29	  33
  29	  34
  30	  37
  30	  53
  31	  33
  31	  39
  31	  45
  31	  49
  31	  50
  32	  37
  32	  40
  32	  41
  32	  43
  32	  49
  32	  51
  32	  57
  34	  45
  34	  52
  35	  42
  35	  45
  35	  48
  35	  52
  35	  53
  35	  57
  36	  45
  36	  48
  36	  50
  37	  44
  37	  56
  37	  57
  38	  41
  38	  51
  38	  56
  42	  54
  43	  52
  44	  47
  44	  49
  44	  58
  45	  50
  45	  51
  45	  56
  46	  49
  48	  55
  50	  59
  51	  53
  51	  54
  53	  58
  54	  59
;
